param totalDistance := 442;

param fuelConsumption := 6.5;

param tankCapacity := 40;

param initialTank := 0;

param safetyMeasure := 50; #km

set Stations:= s x y z a b c;

param: distance     fuelPrice:=
s       0           355                 
y       150         345
x       200         360     
z       250         355
a       300         340   
b       350         345    
c       400         345;     